sat
(:cnf-encoding-aux-vars   25
 :eliminated-applications 4
 :eliminated-vars         111
 :max-memory              19.19
 :memory                  18.34
 :nlsat-conflicts         1105
 :nlsat-decisions         937
 :nlsat-propagations      14935
 :nlsat-stages            1401
 :num-allocs              6519871
 :rlimit-count            2715578
 :time                    0.76
 :total-time              0.76)
